
Gurobi 13.0.2 (win64) logging started Fri Jul 24 11:06:41 2026

Set parameter LogFile to value "E:\codes\ExactEBRP\results\gf_c0_mechanism_transfer_c5_round30\runs\stage4__V12_M2__c5_candidate__rep1__300s\external\native_logs\L2.1_terminal_mip.gurobi.log"
Gurobi Optimizer version 13.0.2 build v13.0.2rc1 (win64 - Windows 10.0 (19045.2))

CPU model: 12th Gen Intel(R) Core(TM) i7-12700KF, instruction set [SSE2|AVX|AVX2]
Thread count: 12 physical cores, 20 logical processors, using up to 1 threads

Non-default parameters:
TimeLimit  140.0124225
MIPGap  0
MIPGapAbs  0
LogToConsole  0
Threads  1

Optimize a model with 11351 rows, 1034 columns and 113600 nonzeros (Min)
Model fingerprint: 0xe2641f98
Model has 13 linear objective coefficients
Variable types: 516 continuous, 518 integer (434 binary)
Coefficient statistics:
  Matrix range     [5e-05, 1e+05]
  Objective range  [5e-05, 1e+00]
  Bounds range     [4e-01, 3e+02]
  RHS range        [2e-01, 1e+06]

Presolve removed 1187 rows and 30 columns
Presolve time: 0.27s
Presolved: 10164 rows, 1004 columns, 134190 nonzeros
Variable types: 489 continuous, 515 integer (431 binary)
Root relaxation presolved: 10125 rows, 981 columns, 134103 nonzeros


Root relaxation: objective 6.603522e-01, 1562 iterations, 0.16 seconds (0.48 work units)

    Nodes    |    Current Node    |     Objective Bounds      |     Work
 Expl Unexpl |  Obj  Depth IntInf | Incumbent    BestBd   Gap | It/Node Time

     0     0    0.66035    0  136          -    0.66035      -     -    0s
     0     0    0.66752    0  158          -    0.66752      -     -    0s
     0     0    0.66775    0  184          -    0.66775      -     -    1s
     0     0    0.66893    0  146          -    0.66893      -     -    1s
     0     0    0.66908    0  163          -    0.66908      -     -    1s
     0     0    0.67038    0  161          -    0.67038      -     -    1s
     0     0    0.67066    0  169          -    0.67066      -     -    2s
     0     0    0.67231    0  167          -    0.67231      -     -    2s
     0     0    0.67239    0  172          -    0.67239      -     -    2s
     0     0    0.67349    0  184          -    0.67349      -     -    2s
     0     0    0.67366    0  182          -    0.67366      -     -    3s
     0     0    0.67437    0  176          -    0.67437      -     -    3s
     0     0    0.67442    0  185          -    0.67442      -     -    3s
     0     0    0.67461    0  195          -    0.67461      -     -    3s
     0     0    0.67465    0  197          -    0.67465      -     -    4s
     0     0    0.67470    0  192          -    0.67470      -     -    4s
     0     0    0.67472    0  201          -    0.67472      -     -    4s
     0     0    0.67480    0  204          -    0.67480      -     -    5s
     0     0    0.67480    0  207          -    0.67480      -     -    5s
     0     0    0.67481    0  201          -    0.67481      -     -    5s
     0     0    0.67482    0  212          -    0.67482      -     -    5s
     0     0    0.67498    0  204          -    0.67498      -     -    6s
     0     0    0.67500    0  207          -    0.67500      -     -    6s
     0     0    0.67510    0  214          -    0.67510      -     -    6s
     0     0    0.67518    0  211          -    0.67518      -     -    6s
     0     0    0.67540    0  206          -    0.67540      -     -    7s
     0     0    0.67543    0  201          -    0.67543      -     -    7s
     0     0    0.67545    0  197          -    0.67545      -     -    7s
     0     0    0.67545    0  196          -    0.67545      -     -    7s
     0     0    0.67556    0  196          -    0.67556      -     -    7s
     0     0    0.67557    0  188          -    0.67557      -     -    7s
     0     0    0.67557    0  189          -    0.67557      -     -    8s
     0     0    0.67558    0  187          -    0.67558      -     -    8s
     0     0    0.67562    0  206          -    0.67562      -     -    8s
     0     0    0.67563    0  206          -    0.67563      -     -    8s
     0     0    0.67564    0  210          -    0.67564      -     -    8s
     0     0    0.67564    0  207          -    0.67564      -     -    8s
     0     0    0.67567    0  208          -    0.67567      -     -    9s
     0     0    0.67567    0  210          -    0.67567      -     -    9s
     0     0    0.67569    0  209          -    0.67569      -     -    9s
     0     0    0.67569    0  193          -    0.67569      -     -    9s
     0     0    0.67569    0  202          -    0.67569      -     -    9s
     0     0    0.67569    0  201          -    0.67569      -     -    9s
     0     0    0.67569    0  199          -    0.67569      -     -    9s
     0     2    0.67569    0  198          -    0.67569      -     -   10s
   203   137    0.68964    5  151          -    0.68497      -   107   15s
   352   222    0.70898   15  116          -    0.68729      -   116   20s
   699   369    0.71825   24   94          -    0.69274      -   109   25s
   778   396    0.71145   15  158          -    0.69387      -   108   30s
   781   398    0.70762   10  199          -    0.69387      -   108   35s
   785   400    0.71600   16  185          -    0.69387      -   107   40s
   795   409    0.69387   12  131          -    0.69387      -   124   45s
   837   409    0.70731   15  165          -    0.69387      -   131   50s
   868   406    0.70347   14  167          -    0.69387      -   134   55s
   914   406    0.71164   23   94          -    0.69387      -   144   60s
  1041   395    0.70463   20  120          -    0.70101      -   144   65s
H 1082   366                       0.7185041    0.70203  2.29%   142   66s
  1232   319    0.71603   19  130    0.71850    0.70634  1.69%   141   70s

Cutting planes:
  Learned: 8
  Cover: 29
  Implied bound: 54
  Projected implied bound: 1
  Clique: 6
  MIR: 57
  StrongCG: 3
  Flow cover: 110
  GUB cover: 10
  Network: 10
  RLT: 3
  Relax-and-lift: 24
  BQP: 2

Explored 1430 nodes (209896 simplex iterations) in 73.08 seconds (142.94 work units)
Thread count was 1 (of 20 available processors)

Solution count 1: 0.718504 

Optimal solution found (tolerance 0.00e+00)
Best objective 7.185040707550e-01, best bound 7.185040707550e-01, gap 0.0000%

User-callback calls 27575, time in user-callback 0.01 sec
